This is Ipopt version 3.10.0, running with linear solver ma27.

Number of nonzeros in equality constraint Jacobian...:        0
Number of nonzeros in inequality constraint Jacobian.:       48
Number of nonzeros in Lagrangian Hessian.............:        0

Total number of variables............................:        6
                     variables with only lower bounds:        3
                variables with lower and upper bounds:        3
                     variables with only upper bounds:        0
Total number of equality constraints.................:        0
Total number of inequality constraints...............:        8
        inequality constraints with only lower bounds:        0
   inequality constraints with lower and upper bounds:        0
        inequality constraints with only upper bounds:        8

iter    objective    inf_pr   inf_du lg(mu)  ||d||  lg(rg) alpha_du alpha_pr  ls
   0  3.8298782e+00 3.01e+00 1.25e+00   0.0 0.00e+00    -  0.00e+00 0.00e+00   0
   1  5.5799384e+00 1.02e+00 5.18e+00  -0.3 2.38e+00    -  6.06e-01 1.00e+00f  1
   2  6.4981435e+00 3.42e-01 2.03e+00  -0.3 1.04e+00    -  8.57e-01 8.94e-01h  1
   3  6.8113845e+00 2.34e-01 1.93e+00  -0.9 3.71e-01    -  9.41e-01 5.88e-01h  1
   4  6.3068847e+00 6.19e-01 2.12e+01  -1.4 8.49e-01    -  1.00e+00 9.14e-01H  1
   5  6.3316904e+00 3.38e-01 3.74e-01  -1.0 2.77e-01    -  1.00e+00 1.00e+00f  1
   6  6.5345144e+00 1.26e-01 1.14e+00  -1.2 3.44e-01    -  8.45e-01 8.78e-01h  1
   7  6.2261622e+00 6.27e-02 1.09e+00  -1.9 1.33e-01    -  9.97e-01 1.00e+00h  1
   8  6.1715797e+00 1.84e-02 2.67e+00  -1.9 1.85e-01    -  1.00e+00 6.93e-01h  1
   9  6.1379200e+00 1.23e-02 1.28e+00  -2.0 1.92e-01    -  1.00e+00 4.29e-01h  1
iter    objective    inf_pr   inf_du lg(mu)  ||d||  lg(rg) alpha_du alpha_pr  ls
  10  6.1395977e+00 2.10e-03 2.18e-01  -2.7 2.85e-02    -  1.00e+00 8.44e-01h  1
  11  6.1319051e+00 5.86e-04 2.07e-01  -3.5 4.46e-03    -  1.00e+00 8.87e-01h  1

Number of Iterations....: 11

                                   (scaled)                 (unscaled)
Objective...............:   6.1319051369564930e+00    6.1319051369564930e+00
Dual infeasibility......:   2.0740270255527585e-01    2.0740270255527585e-01
Constraint violation....:   5.8648340076652972e-04    5.8648340076652972e-04
Complementarity.........:   6.6614358270628417e-04    6.6614358270628417e-04
Overall NLP error.......:   2.0740270255527585e-01    2.0740270255527585e-01


Number of objective function evaluations             = 13
Number of objective gradient evaluations             = 12
Number of equality constraint evaluations            = 0
Number of inequality constraint evaluations          = 13
Number of equality constraint Jacobian evaluations   = 0
Number of inequality constraint Jacobian evaluations = 12
Number of Lagrangian Hessian evaluations             = 0
Total CPU secs in IPOPT (w/o function evaluations)   =      0.013
Total CPU secs in NLP function evaluations           =    234.376

EXIT: Stopping optimization at current point as requested by user.
